# Solution for model PP08A
# Objective value = 7350
S0101... 0
S0102... 40
S0103... 0
S0104... 20
S0105... 0
S0106... 0
S0107... 0
S0201... 0
S0202... 90
S0203... 40
S0204... 30
S0205... 0
S0206... 0
S0207... 50
S0301... 0
S0302... 0
S0303... 0
S0304... 40
S0305... 0
S0306... 0
S0307... 0
S0401... 0
S0402... 0
S0403... 150
S0404... 0
S0405... 90
S0406... 0
S0407... 100
S0501... 110
S0502... 110
S0503... 90
S0504... 50
S0505... 40
S0506... 30
S0507... 10
S0601... 90
S0602... 50
S0603... 10
S0604... 0
S0605... 20
S0606... 0
S0607... 50
S0701... 0
S0702... 0
S0703... 0
S0704... 0
S0705... 0
S0706... 80
S0707... 40
S0801... 0
S0802... 0
S0803... 0
S0804... 70
S0805... 60
S0806... 50
S0807... 30
R0101... 0
R0102... 0
R0103... 10
R0104... 0
R0105... 0
R0106... 0
R0107... 0
R0201... 20
R0202... 0
R0203... 0
R0204... 0
R0205... 0
R0206... 0
R0207... 0
R0301... 40
R0302... 0
R0303... 0
R0304... 0
R0305... 0
R0306... 0
R0307... 90
R0401... 0
R0402... 100
R0403... 0
R0404... 0
R0405... 0
R0406... 0
R0407... 0
R0501... 0
R0502... 0
R0503... 0
R0504... 0
R0505... 0
R0506... 0
R0507... 0
R0601... 0
R0602... 0
R0603... 0
R0604... 30
R0605... 0
R0606... 0
R0607... 0
R0701... 0
R0702... 20
R0703... 70
R0704... 80
R0705... 100
R0706... 0
R0707... 0
R0801... 10
R0802... 30
R0803... 30
R0804... 0
R0805... 0
R0806... 0
R0807... 0
X0101... 0
X0102... 110
X0103... 0
X0104... 130
X0105... 0
X0106... 80
X0107... 0
X0108... 100
X0201... 0
X0202... 150
X0203... 0
X0204... 0
X0205... 0
X0206... 0
X0207... 90
X0208... 0
X0301... 0
X0302... 90
X0303... 0
X0304... 140
X0305... 0
X0306... 80
X0307... 0
X0308... 250
X0401... 0
X0402... 0
X0403... 350
X0404... 0
X0405... 250
X0406... 0
X0407... 200
X0408... 0
X0501... 160
X0502... 0
X0503... 0
X0504... 0
X0505... 0
X0506... 0
X0507... 0
X0508... 0
X0601... 160
X0602... 0
X0603... 0
X0604... 0
X0605... 150
X0606... 0
X0607... 90
X0608... 0
X0701... 0
X0702... 0
X0703... 0
X0704... 0
X0705... 0
X0706... 240
X0707... 0
X0708... 0
X0801... 0
X0802... 0
X0803... 0
X0804... 100
X0805... 0
X0806... 0
X0807... 0
X0808... 0
Y0101... 0
Y0102... 1
Y0103... 0
Y0104... 1
Y0105... 0
Y0106... 1
Y0107... 0
Y0108... 1
Y0201... 0
Y0202... 1
Y0203... 0
Y0204... 0
Y0205... 0
Y0206... 0
Y0207... 1
Y0208... 0
Y0301... 0
Y0302... 1
Y0303... 0
Y0304... 1
Y0305... 0
Y0306... 1
Y0307... 0
Y0308... 1
Y0401... 0
Y0402... 0
Y0403... 1
Y0404... 0
Y0405... 1
Y0406... 0
Y0407... 1
Y0408... 0
Y0501... 1
Y0502... 0
Y0503... 0
Y0504... 0
Y0505... 0
Y0506... 0
Y0507... 0
Y0508... 0
Y0601... 1
Y0602... 0
Y0603... 0
Y0604... 0
Y0605... 1
Y0606... 0
Y0607... 1
Y0608... 0
Y0701... 0
Y0702... 0
Y0703... 0
Y0704... 0
Y0705... 0
Y0706... 1
Y0707... 0
Y0708... 0
Y0801... 0
Y0802... 0
Y0803... 0
Y0804... 1
Y0805... 0
Y0806... 0
Y0807... 0
Y0808... 0
